units UNITS
boundary p p p
atom_style sphere
dimension 2

lattice sq 0.001
region box block -RMAX RMAX -RMAX RMAX -RMAX RMAX
create_box 2 box
create_atoms 1 box
set	       type 1 mass 1
pair_style table STYLE NPOINTS
pair_coeff * * FILE KEYWORD RCUT

pair_write 1 1 PWPOINTS r RMIN RMAX PWFIL KEYWORD
